
Gurobi 10.0.1 (win64) logging started Fri Jun  2 12:25:29 2023

Set parameter LogFile to value "results/log/Fattahi_setup_11_modified_deadline.log"
Gurobi Optimizer version 10.0.1 build v10.0.1rc0 (win64)

CPU model: AMD Ryzen 7 3700X 8-Core Processor, instruction set [SSE2|AVX|AVX2]
Thread count: 8 physical cores, 16 logical processors, using up to 16 threads

Optimize a model with 336 rows, 325 columns and 1191 nonzeros
Model fingerprint: 0xb5f18926
Model has 1 quadratic constraint
Variable types: 0 continuous, 325 integer (291 binary)
Coefficient statistics:
  Matrix range     [1e+00, 1e+09]
  QMatrix range    [1e+00, 1e+00]
  QLMatrix range   [1e+00, 1e+02]
  Objective range  [1e+00, 1e+00]
  Bounds range     [1e+00, 1e+00]
  RHS range        [1e+00, 3e+09]
Warning: Model contains large matrix coefficients
Warning: Model contains large rhs
         Consider reformulating model or setting NumericFocus parameter
         to avoid numerical issues.
Presolve removed 101 rows and 218 columns
Presolve time: 0.00s
Presolved: 258 rows, 140 columns, 1029 nonzeros
Presolved model has 22 SOS constraint(s)
Variable types: 0 continuous, 140 integer (84 binary)

Root relaxation: objective 1.298387e+03, 63 iterations, 0.00 seconds (0.00 work units)

    Nodes    |    Current Node    |     Objective Bounds      |     Work
 Expl Unexpl |  Obj  Depth IntInf | Incumbent    BestBd   Gap | It/Node Time

     0     0 1298.38711    0   25          - 1298.38711      -     -    0s
     0     0 1301.00002    0   38          - 1301.00002      -     -    0s
H    0     0                    3712.0000000 1301.00002  65.0%     -    0s
H    0     0                    3378.0000000 1301.00002  61.5%     -    0s
H    0     0                    2289.0000000 1301.00002  43.2%     -    0s
     0     0 1313.92286    0   33 2289.00000 1313.92286  42.6%     -    0s
H    0     0                    2236.0000000 1313.92286  41.2%     -    0s
     0     0 1328.00000    0   29 2236.00000 1328.00000  40.6%     -    0s
H    0     0                    2235.0000000 1328.00000  40.6%     -    0s
H    0     0                    2227.0000000 1328.00000  40.4%     -    0s
     0     0 1328.00000    0   22 2227.00000 1328.00000  40.4%     -    0s
     0     0 1328.00000    0   22 2227.00000 1328.00000  40.4%     -    0s
H    0     0                    2100.0000000 1328.00000  36.8%     -    0s
H    0     0                    2064.0000000 1328.00000  35.7%     -    0s
     0     0 1328.00000    0   32 2064.00000 1328.00000  35.7%     -    0s
     0     0 1330.75000    0   28 2064.00000 1330.75000  35.5%     -    0s
     0     0 1330.75000    0   28 2064.00000 1330.75000  35.5%     -    0s
     0     0 1333.50000    0   23 2064.00000 1333.50000  35.4%     -    0s
     0     0 1333.64500    0   23 2064.00000 1333.64500  35.4%     -    0s
     0     0 1341.00001    0   23 2064.00000 1341.00001  35.0%     -    0s
H    0     0                    2048.0000000 1341.00001  34.5%     -    0s
     0     0 1343.00000    0   24 2048.00000 1343.00000  34.4%     -    0s
     0     0 1343.00000    0   14 2048.00000 1343.00000  34.4%     -    0s
     0     0 1343.00000    0   14 2048.00000 1343.00000  34.4%     -    0s
H    0     0                    2013.0000000 1343.00000  33.3%     -    0s
H    0     0                    1895.0000000 1343.00000  29.1%     -    0s
     0     2 1343.00000    0   14 1895.00000 1343.00000  29.1%     -    0s
H   79    83                    1832.0000000 1343.00000  26.7%   5.0    0s
H   94    83                    1812.0000000 1343.00000  25.9%   4.8    0s
H  121   126                    1773.0000000 1343.00000  24.3%   4.8    0s
H  139   126                    1737.0000000 1343.00000  22.7%   4.7    0s
H  175   162                    1731.0000000 1343.00000  22.4%   4.3    0s
H  190   162                    1727.0000000 1343.00000  22.2%   4.3    0s
*  659   288              18    1718.0000000 1364.00001  20.6%   3.8    0s
* 4850   961              20    1703.0000000 1447.00000  15.0%   3.6    0s

Cutting planes:
  Learned: 21
  Gomory: 4
  Implied bound: 29
  MIR: 8
  Flow cover: 17
  Inf proof: 67

Explored 10449 nodes (37020 simplex iterations) in 0.41 seconds (0.24 work units)
Thread count was 16 (of 16 available processors)

Solution count 10: 1703 1718 1727 ... 2013

Optimal solution found (tolerance 1.00e-04)
Best objective 1.703000000000e+03, best bound 1.703000000000e+03, gap 0.0000%
Warning: variable name "y[job:0, stage:0, machine:1]" has a space
Warning: constraint name "precedence between 1,0 to 0,0 if x_[j,l,h,z,i]=1" has a space
Warning: to let Gurobi read it back, use rlp format
Warning: variable name "y[job:0, stage:0, machine:1]" has a space
Warning: constraint name "precedence between 1,0 to 0,0 if x_[j,l,h,z,i]=1" has a space
Warning: default variable names used to write mps file
Warning: default constraint names used to write mps file
Warning: variable name "y[job:0, stage:0, machine:1]" has a space
Warning: default variable names used to write solution file
